bin/list.als.cnf
p cnf 421 627               
-6 -5 -46 0
46 -52 0
-5 47 0
-6 47 0
5 6 -47 0
-47 -7 -48 0
48 -52 0
-7 49 0
-47 49 0
7 47 -49 0
-49 -8 -50 0
50 -52 0
-8 51 0
-49 51 0
8 49 -51 0
51 -52 0
52 -57 0
-6 2 -53 0
53 -56 0
-7 3 -54 0
54 -56 0
-8 4 -55 0
55 -56 0
56 -57 0
-1 57 -58 0
58 -301 0
-51 1 -59 0
59 -301 0
-10 -9 -60 0
60 -74 0
-9 61 0
-10 61 0
9 10 -61 0
-61 -11 -62 0
62 -74 0
-11 63 0
-61 63 0
11 61 -63 0
-63 -12 -64 0
64 -74 0
-12 65 0
-63 65 0
12 63 -65 0
-65 -13 -66 0
66 -74 0
-13 67 0
-65 67 0
13 65 -67 0
-67 -14 -68 0
68 -74 0
-14 69 0
-67 69 0
14 67 -69 0
-69 -15 -70 0
70 -74 0
-15 71 0
-69 71 0
15 69 -71 0
-71 -16 -72 0
72 -74 0
-16 73 0
-71 73 0
16 71 -73 0
73 -74 0
-2 74 -75 0
75 -108 0
-18 -17 -76 0
76 -90 0
-17 77 0
-18 77 0
17 18 -77 0
-77 -19 -78 0
78 -90 0
-19 79 0
-77 79 0
19 77 -79 0
-79 -20 -80 0
80 -90 0
-20 81 0
-79 81 0
20 79 -81 0
-81 -21 -82 0
82 -90 0
-21 83 0
-81 83 0
21 81 -83 0
-83 -22 -84 0
84 -90 0
-22 85 0
-83 85 0
22 83 -85 0
-85 -23 -86 0
86 -90 0
-23 87 0
-85 87 0
23 85 -87 0
-87 -24 -88 0
88 -90 0
-24 89 0
-87 89 0
24 87 -89 0
89 -90 0
-3 90 -91 0
91 -108 0
-26 -25 -92 0
92 -106 0
-25 93 0
-26 93 0
25 26 -93 0
-93 -27 -94 0
94 -106 0
-27 95 0
-93 95 0
27 93 -95 0
-95 -28 -96 0
96 -106 0
-28 97 0
-95 97 0
28 95 -97 0
-97 -29 -98 0
98 -106 0
-29 99 0
-97 99 0
29 97 -99 0
-99 -30 -100 0
100 -106 0
-30 101 0
-99 101 0
30 99 -101 0
-101 -31 -102 0
102 -106 0
-31 103 0
-101 103 0
31 101 -103 0
-103 -32 -104 0
104 -106 0
-32 105 0
-103 105 0
32 103 -105 0
105 -106 0
-4 106 -107 0
107 -108 0
108 -301 0
-73 2 -109 0
109 -112 0
-89 3 -110 0
110 -112 0
-105 4 -111 0
111 -112 0
112 -301 0
-34 -33 -113 0
113 -119 0
-33 114 0
-34 114 0
33 34 -114 0
-114 -35 -115 0
115 -119 0
-35 116 0
-114 116 0
35 114 -116 0
-116 -36 -117 0
117 -119 0
-36 118 0
-116 118 0
36 116 -118 0
118 -119 0
119 -124 0
-34 2 -120 0
120 -123 0
-35 3 -121 0
121 -123 0
-36 4 -122 0
122 -123 0
123 -124 0
-2 124 -125 0
125 -152 0
-38 -37 -126 0
126 -132 0
-37 127 0
-38 127 0
37 38 -127 0
-127 -39 -128 0
128 -132 0
-39 129 0
-127 129 0
39 127 -129 0
-129 -40 -130 0
130 -132 0
-40 131 0
-129 131 0
40 129 -131 0
131 -132 0
132 -137 0
-38 2 -133 0
133 -136 0
-39 3 -134 0
134 -136 0
-40 4 -135 0
135 -136 0
136 -137 0
-3 137 -138 0
138 -152 0
-42 -41 -139 0
139 -145 0
-41 140 0
-42 140 0
41 42 -140 0
-140 -43 -141 0
141 -145 0
-43 142 0
-140 142 0
43 140 -142 0
-142 -44 -143 0
143 -145 0
-44 144 0
-142 144 0
44 142 -144 0
144 -145 0
145 -150 0
-42 2 -146 0
146 -149 0
-43 3 -147 0
147 -149 0
-44 4 -148 0
148 -149 0
149 -150 0
-4 150 -151 0
151 -152 0
152 -301 0
-118 2 -153 0
153 -156 0
-131 3 -154 0
154 -156 0
-144 4 -155 0
155 -156 0
156 -301 0
45 -158 0
-45 1 -157 0
157 -158 0
158 -300 0
5 -159 0
45 -159 0
159 -164 0
8 -162 0
45 -162 0
-8 -45 162 0
-162 -163 0
7 -161 0
45 -161 0
-7 -45 161 0
-161 -163 0
6 -160 0
45 -160 0
-6 -45 160 0
-160 -163 0
163 -164 0
2 -289 0
160 -271 0
35 -169 0
38 -169 0
36 -173 0
42 -173 0
34 169 173 -196 0
34 -166 0
35 -166 0
35 -170 0
39 -170 0
36 -174 0
43 -174 0
166 170 174 -197 0
35 197 -208 0
208 -220 0
34 -177 0
38 -177 0
38 -180 0
39 -180 0
40 -183 0
42 -183 0
177 180 183 -200 0
38 200 -211 0
211 -220 0
34 -167 0
36 -167 0
35 -171 0
40 -171 0
36 -175 0
44 -175 0
167 171 175 -198 0
36 198 -209 0
209 -224 0
34 -187 0
42 -187 0
38 -190 0
43 -190 0
42 -193 0
44 -193 0
187 190 193 -204 0
42 204 -214 0
214 -224 0
196 220 224 -247 0
2 247 -267 0
267 -271 0
161 -275 0
196 -228 0
211 -228 0
40 -184 0
43 -184 0
39 169 184 -201 0
201 -231 0
211 -231 0
36 -178 0
38 -178 0
39 -181 0
40 -181 0
40 -185 0
44 -185 0
178 181 185 -202 0
40 202 -212 0
212 -234 0
214 -234 0
228 231 234 -251 0
211 251 -262 0
262 -275 0
162 -279 0
196 -238 0
214 -238 0
211 -241 0
35 -188 0
42 -188 0
39 -191 0
43 -191 0
43 -194 0
44 -194 0
188 191 194 -205 0
43 205 -215 0
215 -241 0
44 173 184 -206 0
206 -244 0
214 -244 0
238 241 244 -255 0
214 255 -265 0
265 -279 0
271 275 279 -283 0
283 -288 0
33 -287 0
-36 -286 0
-35 -286 0
-34 -286 0
286 -287 0
287 -288 0
288 -289 0
3 -293 0
160 -272 0
196 -217 0
208 -217 0
201 -221 0
208 -221 0
209 -225 0
215 -225 0
217 221 225 -248 0
208 248 -259 0
259 -272 0
161 -276 0
212 -235 0
215 -235 0
201 220 235 -252 0
3 252 -268 0
268 -276 0
162 -280 0
208 -239 0
214 -239 0
201 -242 0
215 -242 0
206 -245 0
215 -245 0
239 242 245 -256 0
215 256 -266 0
266 -280 0
272 276 280 -284 0
284 -292 0
37 -291 0
-40 -290 0
-39 -290 0
-38 -290 0
290 -291 0
291 -292 0
292 -293 0
4 -297 0
160 -273 0
196 -218 0
209 -218 0
208 -222 0
212 -222 0
206 -226 0
209 -226 0
218 222 226 -249 0
209 249 -260 0
260 -273 0
161 -277 0
209 -229 0
211 -229 0
201 -232 0
212 -232 0
206 -236 0
212 -236 0
229 232 236 -253 0
212 253 -263 0
263 -277 0
162 -281 0
206 224 235 -257 0
4 257 -269 0
269 -281 0
273 277 281 -285 0
285 -296 0
41 -295 0
-44 -294 0
-43 -294 0
-42 -294 0
294 -295 0
295 -296 0
296 -297 0
289 293 297 -298 0
164 298 -299 0
299 -300 0
300 -301 0
-2 3 -302 0
302 -360 0
-2 -3 303 0
2 3 303 0
-3 3 303 0
-6 7 -304 0
-303 304 -305 0
305 -360 0
-6 -7 306 0
6 7 306 0
-7 7 306 0
-303 -306 307 0
-33 37 -308 0
-307 308 -309 0
309 -360 0
-33 -37 310 0
33 37 310 0
-37 37 310 0
-307 -310 311 0
-34 39 -312 0
-311 312 -313 0
313 -360 0
-34 -39 314 0
34 39 314 0
-39 39 314 0
-311 -314 315 0
-35 38 -316 0
-315 316 -317 0
317 -360 0
-35 -38 318 0
35 38 318 0
-38 38 318 0
-315 -318 319 0
-36 40 -320 0
-319 320 -321 0
321 -360 0
-36 -40 322 0
36 40 322 0
-40 40 322 0
-319 -322 323 0
-42 43 -324 0
-323 324 -325 0
325 -360 0
-42 -43 326 0
42 43 326 0
-43 43 326 0
-323 -326 327 0
-9 17 -328 0
-327 328 -329 0
329 -360 0
-9 -17 330 0
9 17 330 0
-17 17 330 0
-327 -330 331 0
-10 18 -332 0
-331 332 -333 0
333 -360 0
-10 -18 334 0
10 18 334 0
-18 18 334 0
-331 -334 335 0
-11 19 -336 0
-335 336 -337 0
337 -360 0
-11 -19 338 0
11 19 338 0
-19 19 338 0
-335 -338 339 0
-12 20 -340 0
-339 340 -341 0
341 -360 0
-12 -20 342 0
12 20 342 0
-20 20 342 0
-339 -342 343 0
-13 21 -344 0
-343 344 -345 0
345 -360 0
-13 -21 346 0
13 21 346 0
-21 21 346 0
-343 -346 347 0
-14 22 -348 0
-347 348 -349 0
349 -360 0
-14 -22 350 0
14 22 350 0
-22 22 350 0
-347 -350 351 0
-15 23 -352 0
-351 352 -353 0
353 -360 0
-15 -23 354 0
15 23 354 0
-23 23 354 0
-351 -354 355 0
-16 24 -356 0
-355 356 -357 0
357 -360 0
360 -420 0
-3 4 -361 0
361 -419 0
-3 -4 362 0
3 4 362 0
-4 4 362 0
-7 8 -363 0
-362 363 -364 0
364 -419 0
-7 -8 365 0
7 8 365 0
-8 8 365 0
-362 -365 366 0
-35 36 -367 0
-366 367 -368 0
368 -419 0
-35 -36 369 0
35 36 369 0
-36 36 369 0
-366 -369 370 0
-37 41 -371 0
-370 371 -372 0
372 -419 0
-37 -41 373 0
37 41 373 0
-41 41 373 0
-370 -373 374 0
-38 42 -375 0
-374 375 -376 0
376 -419 0
-38 -42 377 0
38 42 377 0
-42 42 377 0
-374 -377 378 0
-39 44 -379 0
-378 379 -380 0
380 -419 0
-39 -44 381 0
39 44 381 0
-44 44 381 0
-378 -381 382 0
-40 43 -383 0
-382 383 -384 0
384 -419 0
-40 -43 385 0
40 43 385 0
-43 43 385 0
-382 -385 386 0
-17 25 -387 0
-386 387 -388 0
388 -419 0
-17 -25 389 0
17 25 389 0
-25 25 389 0
-386 -389 390 0
-18 26 -391 0
-390 391 -392 0
392 -419 0
-18 -26 393 0
18 26 393 0
-26 26 393 0
-390 -393 394 0
-19 27 -395 0
-394 395 -396 0
396 -419 0
-19 -27 397 0
19 27 397 0
-27 27 397 0
-394 -397 398 0
-20 28 -399 0
-398 399 -400 0
400 -419 0
-20 -28 401 0
20 28 401 0
-28 28 401 0
-398 -401 402 0
-21 29 -403 0
-402 403 -404 0
404 -419 0
-21 -29 405 0
21 29 405 0
-29 29 405 0
-402 -405 406 0
-22 30 -407 0
-406 407 -408 0
408 -419 0
-22 -30 409 0
22 30 409 0
-30 30 409 0
-406 -409 410 0
-23 31 -411 0
-410 411 -412 0
412 -419 0
-23 -31 413 0
23 31 413 0
-31 31 413 0
-410 -413 414 0
-24 32 -415 0
-414 415 -416 0
416 -419 0
419 -420 0
301 0
420 0
